c colouring generated by benchmark framework
p edge 24 78
v 1 9
v 2 8
v 3 10
v 4 7
v 5 6
v 6 4
v 7 2
v 8 1
v 9 0
v 10 11
v 11 3
v 12 5
v 13 4
v 14 5
v 15 0
v 16 2
v 17 3
v 18 8
v 19 4
v 20 9
v 21 11
v 22 2
v 23 0
v 24 7
